num_offers = 25;
num_halls = 10;
start=[11,58,80,36,23,7,14,40,32,84,2,49,9,18,84,34,61,63,11,15,21,19,62,21,6];
end=[67,82,98,58,59,73,28,41,100,85,37,95,82,27,88,88,83,76,82,72,41,57,93,76,52];
price=[2294,443,1737,548,1898,1889,724,32,4399,46,2339,4077,2291,589,291,2223,1682,784,4079,3875,1265,2747,1113,3069,1698];
requirement=[982,294,879,310,554,267,946,515,607,614,204,762,357,523,410,610,608,973,446,688,903,462,304,445,704];
capacity=[344,533,788,951,333,328,937,890,949,934];
